p edge 266 3177
v 1 494
v 2 566
v 3 656
v 4 330
v 5 665
v 6 312
v 7 596
v 8 631
v 9 312
v 10 209
v 11 633
v 12 218
v 13 288
v 14 554
v 15 407
v 16 266
v 17 248
v 18 514
v 19 292
v 20 668
v 21 344
v 22 340
v 23 465
v 24 478
v 25 653
v 26 362
v 27 354
v 28 690
v 29 674
v 30 419
v 31 393
v 32 512
v 33 397
v 34 236
v 35 335
v 36 462
v 37 565
v 38 618
v 39 443
v 40 675
v 41 364
v 42 701
v 43 562
v 44 245
v 45 218
v 46 580
v 47 645
v 48 687
v 49 640
v 50 599
v 51 300
v 52 394
v 53 376
v 54 517
v 55 378
v 56 475
v 57 510
v 58 251
v 59 694
v 60 542
v 61 691
v 62 324
v 63 660
v 64 633
v 65 261
v 66 600
v 67 449
v 68 376
v 69 238
v 70 404
v 71 487
v 72 459
v 73 649
v 74 463
v 75 247
v 76 688
v 77 546
v 78 622
v 79 268
v 80 538
v 81 594
v 82 474
v 83 506
v 84 305
v 85 657
v 86 261
v 87 516
v 88 454
v 89 640
v 90 424
v 91 603
v 92 697
v 93 407
v 94 459
v 95 250
v 96 312
v 97 631
v 98 233
v 99 418
v 100 551
v 101 220
v 102 433
v 103 688
v 104 697
v 105 263
v 106 451
v 107 437
v 108 574
v 109 636
v 110 313
v 111 609
v 112 672
v 113 470
v 114 439
v 115 213
v 116 493
v 117 697
v 118 240
v 119 283
v 120 313
v 121 293
v 122 510
v 123 594
v 124 611
v 125 700
v 126 598
v 127 452
v 128 621
v 129 348
v 130 610
v 131 615
v 132 634
v 133 412
v 134 340
v 135 640
v 136 683
v 137 427
v 138 429
v 139 413
v 140 681
v 141 341
v 142 396
v 143 407
v 144 564
v 145 611
v 146 514
v 147 634
v 148 551
v 149 201
v 150 381
v 151 218
v 152 648
v 153 617
v 154 320
v 155 366
v 156 606
v 157 468
v 158 652
v 159 504
v 160 213
v 161 417
v 162 465
v 163 396
v 164 365
v 165 644
v 166 227
v 167 565
v 168 314
v 169 479
v 170 426
v 171 526
v 172 470
v 173 235
v 174 468
v 175 385
v 176 441
v 177 355
v 178 539
v 179 256
v 180 544
v 181 411
v 182 535
v 183 324
v 184 293
v 185 212
v 186 415
v 187 552
v 188 575
v 189 332
v 190 350
v 191 565
v 192 359
v 193 338
v 194 350
v 195 670
v 196 247
v 197 613
v 198 515
v 199 227
v 200 233
v 201 509
v 202 258
v 203 321
v 204 589
v 205 605
v 206 224
v 207 377
v 208 229
v 209 593
v 210 242
v 211 478
v 212 545
v 213 552
v 214 253
v 215 508
v 216 230
v 217 250
v 218 278
v 219 214
v 220 207
v 221 332
v 222 453
v 223 319
v 224 502
v 225 600
v 226 601
v 227 365
v 228 556
v 229 360
v 230 663
v 231 334
v 232 475
v 233 378
v 234 314
v 235 386
v 236 289
v 237 538
v 238 325
v 239 629
v 240 385
v 241 445
v 242 392
v 243 478
v 244 558
v 245 551
v 246 313
v 247 608
v 248 386
v 249 598
v 250 674
v 251 258
v 252 510
v 253 580
v 254 544
v 255 539
v 256 662
v 257 589
v 258 461
v 259 275
v 260 694
v 261 299
v 262 384
v 263 539
v 264 265
v 265 390
v 266 213
e 1 2
e 1 3
e 1 4
e 1 5
e 1 6
e 1 7
e 1 8
e 1 9
e 1 10
e 1 11
e 1 12
e 1 13
e 1 27
e 1 49
e 1 72
e 1 82
e 1 110
e 1 125
e 1 138
e 1 149
e 1 195
e 1 223
e 1 240
e 1 253
e 2 3
e 2 4
e 2 5
e 2 6
e 2 7
e 2 8
e 2 9
e 2 10
e 2 11
e 2 12
e 2 13
e 2 14
e 2 28
e 2 51
e 2 95
e 2 127
e 2 161
e 2 197
e 2 210
e 2 241
e 3 4
e 3 5
e 3 6
e 3 7
e 3 8
e 3 9
e 3 10
e 3 11
e 3 12
e 3 13
e 3 29
e 3 43
e 3 66
e 3 98
e 3 115
e 3 130
e 3 140
e 3 165
e 3 183
e 3 229
e 3 246
e 3 258
e 4 5
e 4 6
e 4 7
e 4 8
e 4 9
e 4 10
e 4 11
e 4 12
e 4 13
e 4 18
e 4 31
e 4 44
e 4 68
e 4 86
e 4 100
e 4 117
e 4 141
e 4 152
e 4 173
e 4 185
e 4 247
e 4 259
e 5 6
e 5 7
e 5 8
e 5 9
e 5 10
e 5 11
e 5 12
e 5 13
e 5 19
e 5 32
e 5 55
e 5 118
e 5 132
e 5 142
e 5 174
e 5 186
e 5 201
e 5 215
e 5 231
e 5 248
e 5 260
e 6 7
e 6 8
e 6 9
e 6 10
e 6 11
e 6 12
e 6 13
e 6 20
e 6 45
e 6 56
e 6 87
e 6 101
e 6 119
e 6 133
e 6 143
e 6 175
e 6 187
e 6 202
e 6 232
e 6 249
e 6 261
e 7 8
e 7 9
e 7 10
e 7 11
e 7 12
e 7 13
e 7 21
e 7 33
e 7 77
e 7 88
e 7 102
e 7 134
e 7 144
e 7 153
e 7 167
e 7 203
e 7 216
e 7 233
e 7 262
e 8 9
e 8 10
e 8 11
e 8 12
e 8 13
e 8 34
e 8 46
e 8 57
e 8 78
e 8 103
e 8 145
e 8 154
e 8 168
e 8 176
e 8 188
e 8 204
e 8 217
e 8 234
e 9 10
e 9 11
e 9 12
e 9 13
e 9 36
e 9 59
e 9 90
e 9 106
e 9 121
e 9 156
e 9 191
e 9 206
e 9 219
e 9 236
e 9 251
e 9 263
e 10 11
e 10 12
e 10 13
e 10 24
e 10 37
e 10 80
e 10 91
e 10 122
e 10 157
e 10 178
e 10 192
e 10 207
e 10 220
e 10 237
e 10 264
e 11 12
e 11 13
e 11 25
e 11 38
e 11 60
e 11 92
e 11 107
e 11 123
e 11 147
e 11 158
e 11 179
e 11 221
e 11 238
e 11 265
e 12 13
e 12 26
e 12 39
e 12 61
e 12 70
e 12 93
e 12 108
e 12 124
e 12 136
e 12 159
e 12 193
e 12 239
e 12 252
e 13 40
e 13 48
e 13 62
e 13 71
e 13 81
e 13 109
e 13 137
e 13 148
e 13 170
e 13 180
e 13 194
e 13 208
e 13 222
e 13 266
e 14 15
e 14 16
e 14 17
e 14 18
e 14 19
e 14 20
e 14 21
e 14 22
e 14 23
e 14 24
e 14 25
e 14 26
e 14 28
e 14 51
e 14 95
e 14 127
e 14 161
e 14 197
e 14 210
e 14 241
e 15 16
e 15 17
e 15 18
e 15 19
e 15 20
e 15 21
e 15 22
e 15 23
e 15 24
e 15 25
e 15 26
e 15 41
e 15 52
e 15 63
e 15 73
e 15 112
e 15 162
e 15 198
e 15 211
e 15 225
e 15 242
e 15 254
e 16 17
e 16 18
e 16 19
e 16 20
e 16 21
e 16 22
e 16 23
e 16 24
e 16 25
e 16 26
e 16 53
e 16 64
e 16 96
e 16 113
e 16 151
e 16 182
e 16 199
e 16 212
e 16 226
e 16 243
e 16 255
e 17 18
e 17 19
e 17 20
e 17 21
e 17 22
e 17 23
e 17 24
e 17 25
e 17 26
e 17 74
e 17 84
e 17 128
e 17 139
e 17 163
e 17 172
e 17 227
e 17 244
e 17 256
e 18 19
e 18 20
e 18 21
e 18 22
e 18 23
e 18 24
e 18 25
e 18 26
e 18 31
e 18 44
e 18 68
e 18 86
e 18 100
e 18 117
e 18 141
e 18 152
e 18 173
e 18 185
e 18 247
e 18 259
e 19 20
e 19 21
e 19 22
e 19 23
e 19 24
e 19 25
e 19 26
e 19 32
e 19 55
e 19 118
e 19 132
e 19 142
e 19 174
e 19 186
e 19 201
e 19 215
e 19 231
e 19 248
e 19 260
e 20 21
e 20 22
e 20 23
e 20 24
e 20 25
e 20 26
e 20 45
e 20 56
e 20 87
e 20 101
e 20 119
e 20 133
e 20 143
e 20 175
e 20 187
e 20 202
e 20 232
e 20 249
e 20 261
e 21 22
e 21 23
e 21 24
e 21 25
e 21 26
e 21 33
e 21 77
e 21 88
e 21 102
e 21 134
e 21 144
e 21 153
e 21 167
e 21 203
e 21 216
e 21 233
e 21 262
e 22 23
e 22 24
e 22 25
e 22 26
e 22 58
e 22 69
e 22 89
e 22 104
e 22 120
e 22 135
e 22 155
e 22 189
e 22 205
e 22 218
e 23 24
e 23 25
e 23 26
e 23 35
e 23 47
e 23 79
e 23 105
e 23 146
e 23 169
e 23 177
e 23 190
e 23 235
e 23 250
e 24 25
e 24 26
e 24 37
e 24 80
e 24 91
e 24 122
e 24 157
e 24 178
e 24 192
e 24 207
e 24 220
e 24 237
e 24 264
e 25 26
e 25 38
e 25 60
e 25 92
e 25 107
e 25 123
e 25 147
e 25 158
e 25 179
e 25 221
e 25 238
e 25 265
e 26 39
e 26 61
e 26 70
e 26 93
e 26 108
e 26 124
e 26 136
e 26 159
e 26 193
e 26 239
e 26 252
e 27 28
e 27 29
e 27 30
e 27 31
e 27 32
e 27 33
e 27 34
e 27 35
e 27 36
e 27 37
e 27 38
e 27 39
e 27 40
e 27 49
e 27 72
e 27 82
e 27 110
e 27 125
e 27 138
e 27 149
e 27 195
e 27 223
e 27 240
e 27 253
e 28 29
e 28 30
e 28 31
e 28 32
e 28 33
e 28 34
e 28 35
e 28 36
e 28 37
e 28 38
e 28 39
e 28 40
e 28 51
e 28 95
e 28 127
e 28 161
e 28 197
e 28 210
e 28 241
e 29 30
e 29 31
e 29 32
e 29 33
e 29 34
e 29 35
e 29 36
e 29 37
e 29 38
e 29 39
e 29 40
e 29 43
e 29 66
e 29 98
e 29 115
e 29 130
e 29 140
e 29 165
e 29 183
e 29 229
e 29 246
e 29 258
e 30 31
e 30 32
e 30 33
e 30 34
e 30 35
e 30 36
e 30 37
e 30 38
e 30 39
e 30 40
e 30 67
e 30 76
e 30 85
e 30 99
e 30 116
e 30 131
e 30 166
e 30 184
e 30 214
e 30 230
e 31 32
e 31 33
e 31 34
e 31 35
e 31 36
e 31 37
e 31 38
e 31 39
e 31 40
e 31 44
e 31 68
e 31 86
e 31 100
e 31 117
e 31 141
e 31 152
e 31 173
e 31 185
e 31 247
e 31 259
e 32 33
e 32 34
e 32 35
e 32 36
e 32 37
e 32 38
e 32 39
e 32 40
e 32 55
e 32 118
e 32 132
e 32 142
e 32 174
e 32 186
e 32 201
e 32 215
e 32 231
e 32 248
e 32 260
e 33 34
e 33 35
e 33 36
e 33 37
e 33 38
e 33 39
e 33 40
e 33 77
e 33 88
e 33 102
e 33 134
e 33 144
e 33 153
e 33 167
e 33 203
e 33 216
e 33 233
e 33 262
e 34 35
e 34 36
e 34 37
e 34 38
e 34 39
e 34 40
e 34 46
e 34 57
e 34 78
e 34 103
e 34 145
e 34 154
e 34 168
e 34 176
e 34 188
e 34 204
e 34 217
e 34 234
e 35 36
e 35 37
e 35 38
e 35 39
e 35 40
e 35 47
e 35 79
e 35 105
e 35 146
e 35 169
e 35 177
e 35 190
e 35 235
e 35 250
e 36 37
e 36 38
e 36 39
e 36 40
e 36 59
e 36 90
e 36 106
e 36 121
e 36 156
e 36 191
e 36 206
e 36 219
e 36 236
e 36 251
e 36 263
e 37 38
e 37 39
e 37 40
e 37 80
e 37 91
e 37 122
e 37 157
e 37 178
e 37 192
e 37 207
e 37 220
e 37 237
e 37 264
e 38 39
e 38 40
e 38 60
e 38 92
e 38 107
e 38 123
e 38 147
e 38 158
e 38 179
e 38 221
e 38 238
e 38 265
e 39 40
e 39 61
e 39 70
e 39 93
e 39 108
e 39 124
e 39 136
e 39 159
e 39 193
e 39 239
e 39 252
e 40 48
e 40 62
e 40 71
e 40 81
e 40 109
e 40 137
e 40 148
e 40 170
e 40 180
e 40 194
e 40 208
e 40 222
e 40 266
e 41 42
e 41 43
e 41 44
e 41 45
e 41 46
e 41 47
e 41 48
e 41 52
e 41 63
e 41 73
e 41 112
e 41 162
e 41 198
e 41 211
e 41 225
e 41 242
e 41 254
e 42 43
e 42 44
e 42 45
e 42 46
e 42 47
e 42 48
e 42 54
e 42 65
e 42 75
e 42 97
e 42 114
e 42 129
e 42 164
e 42 200
e 42 213
e 42 228
e 42 245
e 42 257
e 43 44
e 43 45
e 43 46
e 43 47
e 43 48
e 43 66
e 43 98
e 43 115
e 43 130
e 43 140
e 43 165
e 43 183
e 43 229
e 43 246
e 43 258
e 44 45
e 44 46
e 44 47
e 44 48
e 44 68
e 44 86
e 44 100
e 44 117
e 44 141
e 44 152
e 44 173
e 44 185
e 44 247
e 44 259
e 45 46
e 45 47
e 45 48
e 45 56
e 45 87
e 45 101
e 45 119
e 45 133
e 45 143
e 45 175
e 45 187
e 45 202
e 45 232
e 45 249
e 45 261
e 46 47
e 46 48
e 46 57
e 46 78
e 46 103
e 46 145
e 46 154
e 46 168
e 46 176
e 46 188
e 46 204
e 46 217
e 46 234
e 47 48
e 47 79
e 47 105
e 47 146
e 47 169
e 47 177
e 47 190
e 47 235
e 47 250
e 48 62
e 48 71
e 48 81
e 48 109
e 48 137
e 48 148
e 48 170
e 48 180
e 48 194
e 48 208
e 48 222
e 48 266
e 49 50
e 49 51
e 49 52
e 49 53
e 49 54
e 49 55
e 49 56
e 49 57
e 49 58
e 49 59
e 49 60
e 49 61
e 49 62
e 49 72
e 49 82
e 49 110
e 49 125
e 49 138
e 49 149
e 49 195
e 49 223
e 49 240
e 49 253
e 50 51
e 50 52
e 50 53
e 50 54
e 50 55
e 50 56
e 50 57
e 50 58
e 50 59
e 50 60
e 50 61
e 50 62
e 50 83
e 50 94
e 50 111
e 50 126
e 50 150
e 50 160
e 50 171
e 50 181
e 50 196
e 50 209
e 50 224
e 51 52
e 51 53
e 51 54
e 51 55
e 51 56
e 51 57
e 51 58
e 51 59
e 51 60
e 51 61
e 51 62
e 51 95
e 51 127
e 51 161
e 51 197
e 51 210
e 51 241
e 52 53
e 52 54
e 52 55
e 52 56
e 52 57
e 52 58
e 52 59
e 52 60
e 52 61
e 52 62
e 52 63
e 52 73
e 52 112
e 52 162
e 52 198
e 52 211
e 52 225
e 52 242
e 52 254
e 53 54
e 53 55
e 53 56
e 53 57
e 53 58
e 53 59
e 53 60
e 53 61
e 53 62
e 53 64
e 53 96
e 53 113
e 53 151
e 53 182
e 53 199
e 53 212
e 53 226
e 53 243
e 53 255
e 54 55
e 54 56
e 54 57
e 54 58
e 54 59
e 54 60
e 54 61
e 54 62
e 54 65
e 54 75
e 54 97
e 54 114
e 54 129
e 54 164
e 54 200
e 54 213
e 54 228
e 54 245
e 54 257
e 55 56
e 55 57
e 55 58
e 55 59
e 55 60
e 55 61
e 55 62
e 55 118
e 55 132
e 55 142
e 55 174
e 55 186
e 55 201
e 55 215
e 55 231
e 55 248
e 55 260
e 56 57
e 56 58
e 56 59
e 56 60
e 56 61
e 56 62
e 56 87
e 56 101
e 56 119
e 56 133
e 56 143
e 56 175
e 56 187
e 56 202
e 56 232
e 56 249
e 56 261
e 57 58
e 57 59
e 57 60
e 57 61
e 57 62
e 57 78
e 57 103
e 57 145
e 57 154
e 57 168
e 57 176
e 57 188
e 57 204
e 57 217
e 57 234
e 58 59
e 58 60
e 58 61
e 58 62
e 58 69
e 58 89
e 58 104
e 58 120
e 58 135
e 58 155
e 58 189
e 58 205
e 58 218
e 59 60
e 59 61
e 59 62
e 59 90
e 59 106
e 59 121
e 59 156
e 59 191
e 59 206
e 59 219
e 59 236
e 59 251
e 59 263
e 60 61
e 60 62
e 60 92
e 60 107
e 60 123
e 60 147
e 60 158
e 60 179
e 60 221
e 60 238
e 60 265
e 61 62
e 61 70
e 61 93
e 61 108
e 61 124
e 61 136
e 61 159
e 61 193
e 61 239
e 61 252
e 62 71
e 62 81
e 62 109
e 62 137
e 62 148
e 62 170
e 62 180
e 62 194
e 62 208
e 62 222
e 62 266
e 63 64
e 63 65
e 63 66
e 63 67
e 63 68
e 63 69
e 63 70
e 63 71
e 63 73
e 63 112
e 63 162
e 63 198
e 63 211
e 63 225
e 63 242
e 63 254
e 64 65
e 64 66
e 64 67
e 64 68
e 64 69
e 64 70
e 64 71
e 64 96
e 64 113
e 64 151
e 64 182
e 64 199
e 64 212
e 64 226
e 64 243
e 64 255
e 65 66
e 65 67
e 65 68
e 65 69
e 65 70
e 65 71
e 65 75
e 65 97
e 65 114
e 65 129
e 65 164
e 65 200
e 65 213
e 65 228
e 65 245
e 65 257
e 66 67
e 66 68
e 66 69
e 66 70
e 66 71
e 66 98
e 66 115
e 66 130
e 66 140
e 66 165
e 66 183
e 66 229
e 66 246
e 66 258
e 67 68
e 67 69
e 67 70
e 67 71
e 67 76
e 67 85
e 67 99
e 67 116
e 67 131
e 67 166
e 67 184
e 67 214
e 67 230
e 68 69
e 68 70
e 68 71
e 68 86
e 68 100
e 68 117
e 68 141
e 68 152
e 68 173
e 68 185
e 68 247
e 68 259
e 69 70
e 69 71
e 69 89
e 69 104
e 69 120
e 69 135
e 69 155
e 69 189
e 69 205
e 69 218
e 70 71
e 70 93
e 70 108
e 70 124
e 70 136
e 70 159
e 70 193
e 70 239
e 70 252
e 71 81
e 71 109
e 71 137
e 71 148
e 71 170
e 71 180
e 71 194
e 71 208
e 71 222
e 71 266
e 72 73
e 72 74
e 72 75
e 72 76
e 72 77
e 72 78
e 72 79
e 72 80
e 72 81
e 72 82
e 72 110
e 72 125
e 72 138
e 72 149
e 72 195
e 72 223
e 72 240
e 72 253
e 73 74
e 73 75
e 73 76
e 73 77
e 73 78
e 73 79
e 73 80
e 73 81
e 73 112
e 73 162
e 73 198
e 73 211
e 73 225
e 73 242
e 73 254
e 74 75
e 74 76
e 74 77
e 74 78
e 74 79
e 74 80
e 74 81
e 74 84
e 74 128
e 74 139
e 74 163
e 74 172
e 74 227
e 74 244
e 74 256
e 75 76
e 75 77
e 75 78
e 75 79
e 75 80
e 75 81
e 75 97
e 75 114
e 75 129
e 75 164
e 75 200
e 75 213
e 75 228
e 75 245
e 75 257
e 76 77
e 76 78
e 76 79
e 76 80
e 76 81
e 76 85
e 76 99
e 76 116
e 76 131
e 76 166
e 76 184
e 76 214
e 76 230
e 77 78
e 77 79
e 77 80
e 77 81
e 77 88
e 77 102
e 77 134
e 77 144
e 77 153
e 77 167
e 77 203
e 77 216
e 77 233
e 77 262
e 78 79
e 78 80
e 78 81
e 78 103
e 78 145
e 78 154
e 78 168
e 78 176
e 78 188
e 78 204
e 78 217
e 78 234
e 79 80
e 79 81
e 79 105
e 79 146
e 79 169
e 79 177
e 79 190
e 79 235
e 79 250
e 80 81
e 80 91
e 80 122
e 80 157
e 80 178
e 80 192
e 80 207
e 80 220
e 80 237
e 80 264
e 81 109
e 81 137
e 81 148
e 81 170
e 81 180
e 81 194
e 81 208
e 81 222
e 81 266
e 82 83
e 82 84
e 82 85
e 82 86
e 82 87
e 82 88
e 82 89
e 82 90
e 82 91
e 82 92
e 82 93
e 82 110
e 82 125
e 82 138
e 82 149
e 82 195
e 82 223
e 82 240
e 82 253
e 83 84
e 83 85
e 83 86
e 83 87
e 83 88
e 83 89
e 83 90
e 83 91
e 83 92
e 83 93
e 83 94
e 83 111
e 83 126
e 83 150
e 83 160
e 83 171
e 83 181
e 83 196
e 83 209
e 83 224
e 84 85
e 84 86
e 84 87
e 84 88
e 84 89
e 84 90
e 84 91
e 84 92
e 84 93
e 84 128
e 84 139
e 84 163
e 84 172
e 84 227
e 84 244
e 84 256
e 85 86
e 85 87
e 85 88
e 85 89
e 85 90
e 85 91
e 85 92
e 85 93
e 85 99
e 85 116
e 85 131
e 85 166
e 85 184
e 85 214
e 85 230
e 86 87
e 86 88
e 86 89
e 86 90
e 86 91
e 86 92
e 86 93
e 86 100
e 86 117
e 86 141
e 86 152
e 86 173
e 86 185
e 86 247
e 86 259
e 87 88
e 87 89
e 87 90
e 87 91
e 87 92
e 87 93
e 87 101
e 87 119
e 87 133
e 87 143
e 87 175
e 87 187
e 87 202
e 87 232
e 87 249
e 87 261
e 88 89
e 88 90
e 88 91
e 88 92
e 88 93
e 88 102
e 88 134
e 88 144
e 88 153
e 88 167
e 88 203
e 88 216
e 88 233
e 88 262
e 89 90
e 89 91
e 89 92
e 89 93
e 89 104
e 89 120
e 89 135
e 89 155
e 89 189
e 89 205
e 89 218
e 90 91
e 90 92
e 90 93
e 90 106
e 90 121
e 90 156
e 90 191
e 90 206
e 90 219
e 90 236
e 90 251
e 90 263
e 91 92
e 91 93
e 91 122
e 91 157
e 91 178
e 91 192
e 91 207
e 91 220
e 91 237
e 91 264
e 92 93
e 92 107
e 92 123
e 92 147
e 92 158
e 92 179
e 92 221
e 92 238
e 92 265
e 93 108
e 93 124
e 93 136
e 93 159
e 93 193
e 93 239
e 93 252
e 94 95
e 94 96
e 94 97
e 94 98
e 94 99
e 94 100
e 94 101
e 94 102
e 94 103
e 94 104
e 94 105
e 94 106
e 94 107
e 94 108
e 94 109
e 94 111
e 94 126
e 94 150
e 94 160
e 94 171
e 94 181
e 94 196
e 94 209
e 94 224
e 95 96
e 95 97
e 95 98
e 95 99
e 95 100
e 95 101
e 95 102
e 95 103
e 95 104
e 95 105
e 95 106
e 95 107
e 95 108
e 95 109
e 95 127
e 95 161
e 95 197
e 95 210
e 95 241
e 96 97
e 96 98
e 96 99
e 96 100
e 96 101
e 96 102
e 96 103
e 96 104
e 96 105
e 96 106
e 96 107
e 96 108
e 96 109
e 96 113
e 96 151
e 96 182
e 96 199
e 96 212
e 96 226
e 96 243
e 96 255
e 97 98
e 97 99
e 97 100
e 97 101
e 97 102
e 97 103
e 97 104
e 97 105
e 97 106
e 97 107
e 97 108
e 97 109
e 97 114
e 97 129
e 97 164
e 97 200
e 97 213
e 97 228
e 97 245
e 97 257
e 98 99
e 98 100
e 98 101
e 98 102
e 98 103
e 98 104
e 98 105
e 98 106
e 98 107
e 98 108
e 98 109
e 98 115
e 98 130
e 98 140
e 98 165
e 98 183
e 98 229
e 98 246
e 98 258
e 99 100
e 99 101
e 99 102
e 99 103
e 99 104
e 99 105
e 99 106
e 99 107
e 99 108
e 99 109
e 99 116
e 99 131
e 99 166
e 99 184
e 99 214
e 99 230
e 100 101
e 100 102
e 100 103
e 100 104
e 100 105
e 100 106
e 100 107
e 100 108
e 100 109
e 100 117
e 100 141
e 100 152
e 100 173
e 100 185
e 100 247
e 100 259
e 101 102
e 101 103
e 101 104
e 101 105
e 101 106
e 101 107
e 101 108
e 101 109
e 101 119
e 101 133
e 101 143
e 101 175
e 101 187
e 101 202
e 101 232
e 101 249
e 101 261
e 102 103
e 102 104
e 102 105
e 102 106
e 102 107
e 102 108
e 102 109
e 102 134
e 102 144
e 102 153
e 102 167
e 102 203
e 102 216
e 102 233
e 102 262
e 103 104
e 103 105
e 103 106
e 103 107
e 103 108
e 103 109
e 103 145
e 103 154
e 103 168
e 103 176
e 103 188
e 103 204
e 103 217
e 103 234
e 104 105
e 104 106
e 104 107
e 104 108
e 104 109
e 104 120
e 104 135
e 104 155
e 104 189
e 104 205
e 104 218
e 105 106
e 105 107
e 105 108
e 105 109
e 105 146
e 105 169
e 105 177
e 105 190
e 105 235
e 105 250
e 106 107
e 106 108
e 106 109
e 106 121
e 106 156
e 106 191
e 106 206
e 106 219
e 106 236
e 106 251
e 106 263
e 107 108
e 107 109
e 107 123
e 107 147
e 107 158
e 107 179
e 107 221
e 107 238
e 107 265
e 108 109
e 108 124
e 108 136
e 108 159
e 108 193
e 108 239
e 108 252
e 109 137
e 109 148
e 109 170
e 109 180
e 109 194
e 109 208
e 109 222
e 109 266
e 110 111
e 110 112
e 110 113
e 110 114
e 110 115
e 110 116
e 110 117
e 110 118
e 110 119
e 110 120
e 110 121
e 110 122
e 110 123
e 110 124
e 110 125
e 110 138
e 110 149
e 110 195
e 110 223
e 110 240
e 110 253
e 111 112
e 111 113
e 111 114
e 111 115
e 111 116
e 111 117
e 111 118
e 111 119
e 111 120
e 111 121
e 111 122
e 111 123
e 111 124
e 111 126
e 111 150
e 111 160
e 111 171
e 111 181
e 111 196
e 111 209
e 111 224
e 112 113
e 112 114
e 112 115
e 112 116
e 112 117
e 112 118
e 112 119
e 112 120
e 112 121
e 112 122
e 112 123
e 112 124
e 112 162
e 112 198
e 112 211
e 112 225
e 112 242
e 112 254
e 113 114
e 113 115
e 113 116
e 113 117
e 113 118
e 113 119
e 113 120
e 113 121
e 113 122
e 113 123
e 113 124
e 113 151
e 113 182
e 113 199
e 113 212
e 113 226
e 113 243
e 113 255
e 114 115
e 114 116
e 114 117
e 114 118
e 114 119
e 114 120
e 114 121
e 114 122
e 114 123
e 114 124
e 114 129
e 114 164
e 114 200
e 114 213
e 114 228
e 114 245
e 114 257
e 115 116
e 115 117
e 115 118
e 115 119
e 115 120
e 115 121
e 115 122
e 115 123
e 115 124
e 115 130
e 115 140
e 115 165
e 115 183
e 115 229
e 115 246
e 115 258
e 116 117
e 116 118
e 116 119
e 116 120
e 116 121
e 116 122
e 116 123
e 116 124
e 116 131
e 116 166
e 116 184
e 116 214
e 116 230
e 117 118
e 117 119
e 117 120
e 117 121
e 117 122
e 117 123
e 117 124
e 117 141
e 117 152
e 117 173
e 117 185
e 117 247
e 117 259
e 118 119
e 118 120
e 118 121
e 118 122
e 118 123
e 118 124
e 118 132
e 118 142
e 118 174
e 118 186
e 118 201
e 118 215
e 118 231
e 118 248
e 118 260
e 119 120
e 119 121
e 119 122
e 119 123
e 119 124
e 119 133
e 119 143
e 119 175
e 119 187
e 119 202
e 119 232
e 119 249
e 119 261
e 120 121
e 120 122
e 120 123
e 120 124
e 120 135
e 120 155
e 120 189
e 120 205
e 120 218
e 121 122
e 121 123
e 121 124
e 121 156
e 121 191
e 121 206
e 121 219
e 121 236
e 121 251
e 121 263
e 122 123
e 122 124
e 122 157
e 122 178
e 122 192
e 122 207
e 122 220
e 122 237
e 122 264
e 123 124
e 123 147
e 123 158
e 123 179
e 123 221
e 123 238
e 123 265
e 124 136
e 124 159
e 124 193
e 124 239
e 124 252
e 125 126
e 125 127
e 125 128
e 125 129
e 125 130
e 125 131
e 125 132
e 125 133
e 125 134
e 125 135
e 125 136
e 125 137
e 125 138
e 125 149
e 125 195
e 125 223
e 125 240
e 125 253
e 126 127
e 126 128
e 126 129
e 126 130
e 126 131
e 126 132
e 126 133
e 126 134
e 126 135
e 126 136
e 126 137
e 126 150
e 126 160
e 126 171
e 126 181
e 126 196
e 126 209
e 126 224
e 127 128
e 127 129
e 127 130
e 127 131
e 127 132
e 127 133
e 127 134
e 127 135
e 127 136
e 127 137
e 127 161
e 127 197
e 127 210
e 127 241
e 128 129
e 128 130
e 128 131
e 128 132
e 128 133
e 128 134
e 128 135
e 128 136
e 128 137
e 128 139
e 128 163
e 128 172
e 128 227
e 128 244
e 128 256
e 129 130
e 129 131
e 129 132
e 129 133
e 129 134
e 129 135
e 129 136
e 129 137
e 129 164
e 129 200
e 129 213
e 129 228
e 129 245
e 129 257
e 130 131
e 130 132
e 130 133
e 130 134
e 130 135
e 130 136
e 130 137
e 130 140
e 130 165
e 130 183
e 130 229
e 130 246
e 130 258
e 131 132
e 131 133
e 131 134
e 131 135
e 131 136
e 131 137
e 131 166
e 131 184
e 131 214
e 131 230
e 132 133
e 132 134
e 132 135
e 132 136
e 132 137
e 132 142
e 132 174
e 132 186
e 132 201
e 132 215
e 132 231
e 132 248
e 132 260
e 133 134
e 133 135
e 133 136
e 133 137
e 133 143
e 133 175
e 133 187
e 133 202
e 133 232
e 133 249
e 133 261
e 134 135
e 134 136
e 134 137
e 134 144
e 134 153
e 134 167
e 134 203
e 134 216
e 134 233
e 134 262
e 135 136
e 135 137
e 135 155
e 135 189
e 135 205
e 135 218
e 136 137
e 136 159
e 136 193
e 136 239
e 136 252
e 137 148
e 137 170
e 137 180
e 137 194
e 137 208
e 137 222
e 137 266
e 138 139
e 138 140
e 138 141
e 138 142
e 138 143
e 138 144
e 138 145
e 138 146
e 138 147
e 138 148
e 138 149
e 138 195
e 138 223
e 138 240
e 138 253
e 139 140
e 139 141
e 139 142
e 139 143
e 139 144
e 139 145
e 139 146
e 139 147
e 139 148
e 139 163
e 139 172
e 139 227
e 139 244
e 139 256
e 140 141
e 140 142
e 140 143
e 140 144
e 140 145
e 140 146
e 140 147
e 140 148
e 140 165
e 140 183
e 140 229
e 140 246
e 140 258
e 141 142
e 141 143
e 141 144
e 141 145
e 141 146
e 141 147
e 141 148
e 141 152
e 141 173
e 141 185
e 141 247
e 141 259
e 142 143
e 142 144
e 142 145
e 142 146
e 142 147
e 142 148
e 142 174
e 142 186
e 142 201
e 142 215
e 142 231
e 142 248
e 142 260
e 143 144
e 143 145
e 143 146
e 143 147
e 143 148
e 143 175
e 143 187
e 143 202
e 143 232
e 143 249
e 143 261
e 144 145
e 144 146
e 144 147
e 144 148
e 144 153
e 144 167
e 144 203
e 144 216
e 144 233
e 144 262
e 145 146
e 145 147
e 145 148
e 145 154
e 145 168
e 145 176
e 145 188
e 145 204
e 145 217
e 145 234
e 146 147
e 146 148
e 146 169
e 146 177
e 146 190
e 146 235
e 146 250
e 147 148
e 147 158
e 147 179
e 147 221
e 147 238
e 147 265
e 148 170
e 148 180
e 148 194
e 148 208
e 148 222
e 148 266
e 149 150
e 149 151
e 149 152
e 149 153
e 149 154
e 149 155
e 149 156
e 149 157
e 149 158
e 149 159
e 149 195
e 149 223
e 149 240
e 149 253
e 150 151
e 150 152
e 150 153
e 150 154
e 150 155
e 150 156
e 150 157
e 150 158
e 150 159
e 150 160
e 150 171
e 150 181
e 150 196
e 150 209
e 150 224
e 151 152
e 151 153
e 151 154
e 151 155
e 151 156
e 151 157
e 151 158
e 151 159
e 151 182
e 151 199
e 151 212
e 151 226
e 151 243
e 151 255
e 152 153
e 152 154
e 152 155
e 152 156
e 152 157
e 152 158
e 152 159
e 152 173
e 152 185
e 152 247
e 152 259
e 153 154
e 153 155
e 153 156
e 153 157
e 153 158
e 153 159
e 153 167
e 153 203
e 153 216
e 153 233
e 153 262
e 154 155
e 154 156
e 154 157
e 154 158
e 154 159
e 154 168
e 154 176
e 154 188
e 154 204
e 154 217
e 154 234
e 155 156
e 155 157
e 155 158
e 155 159
e 155 189
e 155 205
e 155 218
e 156 157
e 156 158
e 156 159
e 156 191
e 156 206
e 156 219
e 156 236
e 156 251
e 156 263
e 157 158
e 157 159
e 157 178
e 157 192
e 157 207
e 157 220
e 157 237
e 157 264
e 158 159
e 158 179
e 158 221
e 158 238
e 158 265
e 159 193
e 159 239
e 159 252
e 160 161
e 160 162
e 160 163
e 160 164
e 160 165
e 160 166
e 160 167
e 160 168
e 160 169
e 160 170
e 160 171
e 160 181
e 160 196
e 160 209
e 160 224
e 161 162
e 161 163
e 161 164
e 161 165
e 161 166
e 161 167
e 161 168
e 161 169
e 161 170
e 161 197
e 161 210
e 161 241
e 162 163
e 162 164
e 162 165
e 162 166
e 162 167
e 162 168
e 162 169
e 162 170
e 162 198
e 162 211
e 162 225
e 162 242
e 162 254
e 163 164
e 163 165
e 163 166
e 163 167
e 163 168
e 163 169
e 163 170
e 163 172
e 163 227
e 163 244
e 163 256
e 164 165
e 164 166
e 164 167
e 164 168
e 164 169
e 164 170
e 164 200
e 164 213
e 164 228
e 164 245
e 164 257
e 165 166
e 165 167
e 165 168
e 165 169
e 165 170
e 165 183
e 165 229
e 165 246
e 165 258
e 166 167
e 166 168
e 166 169
e 166 170
e 166 184
e 166 214
e 166 230
e 167 168
e 167 169
e 167 170
e 167 203
e 167 216
e 167 233
e 167 262
e 168 169
e 168 170
e 168 176
e 168 188
e 168 204
e 168 217
e 168 234
e 169 170
e 169 177
e 169 190
e 169 235
e 169 250
e 170 180
e 170 194
e 170 208
e 170 222
e 170 266
e 171 172
e 171 173
e 171 174
e 171 175
e 171 176
e 171 177
e 171 178
e 171 179
e 171 180
e 171 181
e 171 196
e 171 209
e 171 224
e 172 173
e 172 174
e 172 175
e 172 176
e 172 177
e 172 178
e 172 179
e 172 180
e 172 227
e 172 244
e 172 256
e 173 174
e 173 175
e 173 176
e 173 177
e 173 178
e 173 179
e 173 180
e 173 185
e 173 247
e 173 259
e 174 175
e 174 176
e 174 177
e 174 178
e 174 179
e 174 180
e 174 186
e 174 201
e 174 215
e 174 231
e 174 248
e 174 260
e 175 176
e 175 177
e 175 178
e 175 179
e 175 180
e 175 187
e 175 202
e 175 232
e 175 249
e 175 261
e 176 177
e 176 178
e 176 179
e 176 180
e 176 188
e 176 204
e 176 217
e 176 234
e 177 178
e 177 179
e 177 180
e 177 190
e 177 235
e 177 250
e 178 179
e 178 180
e 178 192
e 178 207
e 178 220
e 178 237
e 178 264
e 179 180
e 179 221
e 179 238
e 179 265
e 180 194
e 180 208
e 180 222
e 180 266
e 181 182
e 181 183
e 181 184
e 181 185
e 181 186
e 181 187
e 181 188
e 181 189
e 181 190
e 181 191
e 181 192
e 181 193
e 181 194
e 181 196
e 181 209
e 181 224
e 182 183
e 182 184
e 182 185
e 182 186
e 182 187
e 182 188
e 182 189
e 182 190
e 182 191
e 182 192
e 182 193
e 182 194
e 182 199
e 182 212
e 182 226
e 182 243
e 182 255
e 183 184
e 183 185
e 183 186
e 183 187
e 183 188
e 183 189
e 183 190
e 183 191
e 183 192
e 183 193
e 183 194
e 183 229
e 183 246
e 183 258
e 184 185
e 184 186
e 184 187
e 184 188
e 184 189
e 184 190
e 184 191
e 184 192
e 184 193
e 184 194
e 184 214
e 184 230
e 185 186
e 185 187
e 185 188
e 185 189
e 185 190
e 185 191
e 185 192
e 185 193
e 185 194
e 185 247
e 185 259
e 186 187
e 186 188
e 186 189
e 186 190
e 186 191
e 186 192
e 186 193
e 186 194
e 186 201
e 186 215
e 186 231
e 186 248
e 186 260
e 187 188
e 187 189
e 187 190
e 187 191
e 187 192
e 187 193
e 187 194
e 187 202
e 187 232
e 187 249
e 187 261
e 188 189
e 188 190
e 188 191
e 188 192
e 188 193
e 188 194
e 188 204
e 188 217
e 188 234
e 189 190
e 189 191
e 189 192
e 189 193
e 189 194
e 189 205
e 189 218
e 190 191
e 190 192
e 190 193
e 190 194
e 190 235
e 190 250
e 191 192
e 191 193
e 191 194
e 191 206
e 191 219
e 191 236
e 191 251
e 191 263
e 192 193
e 192 194
e 192 207
e 192 220
e 192 237
e 192 264
e 193 194
e 193 239
e 193 252
e 194 208
e 194 222
e 194 266
e 195 196
e 195 197
e 195 198
e 195 199
e 195 200
e 195 201
e 195 202
e 195 203
e 195 204
e 195 205
e 195 206
e 195 207
e 195 208
e 195 223
e 195 240
e 195 253
e 196 197
e 196 198
e 196 199
e 196 200
e 196 201
e 196 202
e 196 203
e 196 204
e 196 205
e 196 206
e 196 207
e 196 208
e 196 209
e 196 224
e 197 198
e 197 199
e 197 200
e 197 201
e 197 202
e 197 203
e 197 204
e 197 205
e 197 206
e 197 207
e 197 208
e 197 210
e 197 241
e 198 199
e 198 200
e 198 201
e 198 202
e 198 203
e 198 204
e 198 205
e 198 206
e 198 207
e 198 208
e 198 211
e 198 225
e 198 242
e 198 254
e 199 200
e 199 201
e 199 202
e 199 203
e 199 204
e 199 205
e 199 206
e 199 207
e 199 208
e 199 212
e 199 226
e 199 243
e 199 255
e 200 201
e 200 202
e 200 203
e 200 204
e 200 205
e 200 206
e 200 207
e 200 208
e 200 213
e 200 228
e 200 245
e 200 257
e 201 202
e 201 203
e 201 204
e 201 205
e 201 206
e 201 207
e 201 208
e 201 215
e 201 231
e 201 248
e 201 260
e 202 203
e 202 204
e 202 205
e 202 206
e 202 207
e 202 208
e 202 232
e 202 249
e 202 261
e 203 204
e 203 205
e 203 206
e 203 207
e 203 208
e 203 216
e 203 233
e 203 262
e 204 205
e 204 206
e 204 207
e 204 208
e 204 217
e 204 234
e 205 206
e 205 207
e 205 208
e 205 218
e 206 207
e 206 208
e 206 219
e 206 236
e 206 251
e 206 263
e 207 208
e 207 220
e 207 237
e 207 264
e 208 222
e 208 266
e 209 210
e 209 211
e 209 212
e 209 213
e 209 214
e 209 215
e 209 216
e 209 217
e 209 218
e 209 219
e 209 220
e 209 221
e 209 222
e 209 224
e 210 211
e 210 212
e 210 213
e 210 214
e 210 215
e 210 216
e 210 217
e 210 218
e 210 219
e 210 220
e 210 221
e 210 222
e 210 241
e 211 212
e 211 213
e 211 214
e 211 215
e 211 216
e 211 217
e 211 218
e 211 219
e 211 220
e 211 221
e 211 222
e 211 225
e 211 242
e 211 254
e 212 213
e 212 214
e 212 215
e 212 216
e 212 217
e 212 218
e 212 219
e 212 220
e 212 221
e 212 222
e 212 226
e 212 243
e 212 255
e 213 214
e 213 215
e 213 216
e 213 217
e 213 218
e 213 219
e 213 220
e 213 221
e 213 222
e 213 228
e 213 245
e 213 257
e 214 215
e 214 216
e 214 217
e 214 218
e 214 219
e 214 220
e 214 221
e 214 222
e 214 230
e 215 216
e 215 217
e 215 218
e 215 219
e 215 220
e 215 221
e 215 222
e 215 231
e 215 248
e 215 260
e 216 217
e 216 218
e 216 219
e 216 220
e 216 221
e 216 222
e 216 233
e 216 262
e 217 218
e 217 219
e 217 220
e 217 221
e 217 222
e 217 234
e 218 219
e 218 220
e 218 221
e 218 222
e 219 220
e 219 221
e 219 222
e 219 236
e 219 251
e 219 263
e 220 221
e 220 222
e 220 237
e 220 264
e 221 222
e 221 238
e 221 265
e 222 266
e 223 224
e 223 225
e 223 226
e 223 227
e 223 228
e 223 229
e 223 230
e 223 231
e 223 232
e 223 233
e 223 234
e 223 235
e 223 236
e 223 237
e 223 238
e 223 239
e 223 240
e 223 253
e 224 225
e 224 226
e 224 227
e 224 228
e 224 229
e 224 230
e 224 231
e 224 232
e 224 233
e 224 234
e 224 235
e 224 236
e 224 237
e 224 238
e 224 239
e 225 226
e 225 227
e 225 228
e 225 229
e 225 230
e 225 231
e 225 232
e 225 233
e 225 234
e 225 235
e 225 236
e 225 237
e 225 238
e 225 239
e 225 242
e 225 254
e 226 227
e 226 228
e 226 229
e 226 230
e 226 231
e 226 232
e 226 233
e 226 234
e 226 235
e 226 236
e 226 237
e 226 238
e 226 239
e 226 243
e 226 255
e 227 228
e 227 229
e 227 230
e 227 231
e 227 232
e 227 233
e 227 234
e 227 235
e 227 236
e 227 237
e 227 238
e 227 239
e 227 244
e 227 256
e 228 229
e 228 230
e 228 231
e 228 232
e 228 233
e 228 234
e 228 235
e 228 236
e 228 237
e 228 238
e 228 239
e 228 245
e 228 257
e 229 230
e 229 231
e 229 232
e 229 233
e 229 234
e 229 235
e 229 236
e 229 237
e 229 238
e 229 239
e 229 246
e 229 258
e 230 231
e 230 232
e 230 233
e 230 234
e 230 235
e 230 236
e 230 237
e 230 238
e 230 239
e 231 232
e 231 233
e 231 234
e 231 235
e 231 236
e 231 237
e 231 238
e 231 239
e 231 248
e 231 260
e 232 233
e 232 234
e 232 235
e 232 236
e 232 237
e 232 238
e 232 239
e 232 249
e 232 261
e 233 234
e 233 235
e 233 236
e 233 237
e 233 238
e 233 239
e 233 262
e 234 235
e 234 236
e 234 237
e 234 238
e 234 239
e 235 236
e 235 237
e 235 238
e 235 239
e 235 250
e 236 237
e 236 238
e 236 239
e 236 251
e 236 263
e 237 238
e 237 239
e 237 264
e 238 239
e 238 265
e 239 252
e 240 241
e 240 242
e 240 243
e 240 244
e 240 245
e 240 246
e 240 247
e 240 248
e 240 249
e 240 250
e 240 251
e 240 252
e 240 253
e 241 242
e 241 243
e 241 244
e 241 245
e 241 246
e 241 247
e 241 248
e 241 249
e 241 250
e 241 251
e 241 252
e 242 243
e 242 244
e 242 245
e 242 246
e 242 247
e 242 248
e 242 249
e 242 250
e 242 251
e 242 252
e 242 254
e 243 244
e 243 245
e 243 246
e 243 247
e 243 248
e 243 249
e 243 250
e 243 251
e 243 252
e 243 255
e 244 245
e 244 246
e 244 247
e 244 248
e 244 249
e 244 250
e 244 251
e 244 252
e 244 256
e 245 246
e 245 247
e 245 248
e 245 249
e 245 250
e 245 251
e 245 252
e 245 257
e 246 247
e 246 248
e 246 249
e 246 250
e 246 251
e 246 252
e 246 258
e 247 248
e 247 249
e 247 250
e 247 251
e 247 252
e 247 259
e 248 249
e 248 250
e 248 251
e 248 252
e 248 260
e 249 250
e 249 251
e 249 252
e 249 261
e 250 251
e 250 252
e 251 252
e 251 263
e 253 254
e 253 255
e 253 256
e 253 257
e 253 258
e 253 259
e 253 260
e 253 261
e 253 262
e 253 263
e 253 264
e 253 265
e 253 266
e 254 255
e 254 256
e 254 257
e 254 258
e 254 259
e 254 260
e 254 261
e 254 262
e 254 263
e 254 264
e 254 265
e 254 266
e 255 256
e 255 257
e 255 258
e 255 259
e 255 260
e 255 261
e 255 262
e 255 263
e 255 264
e 255 265
e 255 266
e 256 257
e 256 258
e 256 259
e 256 260
e 256 261
e 256 262
e 256 263
e 256 264
e 256 265
e 256 266
e 257 258
e 257 259
e 257 260
e 257 261
e 257 262
e 257 263
e 257 264
e 257 265
e 257 266
e 258 259
e 258 260
e 258 261
e 258 262
e 258 263
e 258 264
e 258 265
e 258 266
e 259 260
e 259 261
e 259 262
e 259 263
e 259 264
e 259 265
e 259 266
e 260 261
e 260 262
e 260 263
e 260 264
e 260 265
e 260 266
e 261 262
e 261 263
e 261 264
e 261 265
e 261 266
e 262 263
e 262 264
e 262 265
e 262 266
e 263 264
e 263 265
e 263 266
e 264 265
e 264 266
e 265 266
